proyecto3/PracticalSAT/SAT2005_example.cnf
p cnf 94 300
c
c   #vars: 94   #clauses: 300   #literals: 776
c
-1 2 0
1 -2 0
2 3 0
-2 -3 0
1 4 0
-1 -4 0
-4 5 0
4 -5 0
1 -7 0
-1 7 0
1 -3 6 0
-1 6 -7 0
1 3 -6 0
-1 -6 7 0
-6 8 0
6 -8 0
-1 13 0
1 -13 0
-12 13 0
12 -13 0
-3 -11 12 0
3 -11 -12 0
3 11 12 0
-3 11 -12 0
-1 7 14 0
1 -14 0
-7 -14 0
-10 -11 14 0
-10 11 -14 0
10 11 14 0
10 -11 -14 0
1 9 0
-1 9 -10 0
-1 -9 10 0
9 15 0
-9 -15 0
-13 21 0
13 -21 0
-3 -20 21 0
3 -20 -21 0
3 20 21 0
-3 20 -21 0
-3 12 22 0
3 -22 0
-12 -22 0
-19 -20 22 0
-19 20 -22 0
19 20 22 0
19 -20 -22 0
-18 -19 0
18 19 0
-11 -14 23 0
11 -23 0
14 -23 0
-17 -18 23 0
-17 18 -23 0
17 18 23 0
17 -18 -23 0
-1 16 -17 0
1 -16 0
-1 -16 17 0
-16 24 0
16 -24 0
-3 -21 31 0
3 -31 0
21 -31 0
-21 -22 33 0
21 -33 0
22 -33 0
-3 -22 34 0
3 -34 0
22 -34 0
32 33 34 0
-32 -33 0
-32 -34 0
30 31 -32 0
-30 -31 0
-30 32 0
-29 -30 0
29 30 0
-28 -29 0
28 29 0
-27 -28 0
27 28 0
18 -23 35 0
-18 -35 0
23 -35 0
-26 -27 35 0
-26 27 -35 0
26 27 35 0
26 -27 -35 0
-1 25 26 0
1 -25 0
-25 -26 0
-25 36 0
25 -36 0
5 -8 37 0
-5 -37 0
8 -37 0
-37 38 0
37 -38 0
-5 8 -40 0
5 -8 -40 0
5 8 40 0
-5 -8 40 0
5 -15 39 0
-5 39 -40 0
5 15 -39 0
-5 -39 40 0
-39 41 0
39 -41 0
-5 -8 46 0
5 -46 0
8 -46 0
-8 -45 46 0
8 -45 -46 0
8 45 46 0
-8 45 -46 0
-15 -44 45 0
15 -44 -45 0
15 44 45 0
-15 44 -45 0
-5 40 47 0
5 -47 0
-40 -47 0
-43 -44 47 0
-43 44 -47 0
43 44 47 0
43 -44 -47 0
5 24 42 0
-5 42 -43 0
5 -24 -42 0
-5 -42 43 0
42 48 0
-42 -48 0
-8 -46 54 0
8 -54 0
46 -54 0
-15 -53 54 0
15 -53 -54 0
15 53 54 0
-15 53 -54 0
-15 45 55 0
15 -55 0
-45 -55 0
-52 -53 55 0
-52 53 -55 0
52 53 55 0
52 -53 -55 0
-24 -51 52 0
24 -51 -52 0
24 51 52 0
-24 51 -52 0
-44 -47 56 0
44 -56 0
47 -56 0
-50 -51 56 0
-50 51 -56 0
50 51 56 0
50 -51 -56 0
5 -36 49 0
-5 49 -50 0
5 36 -49 0
-5 -49 50 0
-49 57 0
49 -57 0
-15 -54 64 0
15 -64 0
54 -64 0
-54 -55 66 0
54 -66 0
55 -66 0
-15 -55 67 0
15 -67 0
55 -67 0
65 66 67 0
-65 -66 0
-65 -67 0
63 64 -65 0
-63 -64 0
-63 65 0
-24 -62 63 0
24 -62 -63 0
24 62 63 0
-24 62 -63 0
-24 -52 68 0
24 -68 0
52 -68 0
-61 -62 68 0
-61 62 -68 0
61 62 68 0
61 -62 -68 0
-36 -60 61 0
36 -60 -61 0
36 60 61 0
-36 60 -61 0
51 -56 69 0
-51 -69 0
56 -69 0
-59 -60 69 0
-59 60 -69 0
59 60 69 0
59 -60 -69 0
-5 58 59 0
5 -58 0
-58 -59 0
-58 70 0
58 -70 0
38 -41 0
-38 41 -71 0
38 -41 -71 0
38 41 71 0
-38 -41 71 0
38 48 0
-38 71 0
-38 -41 75 0
38 -75 0
41 -75 0
-41 -74 75 0
41 -74 -75 0
41 74 75 0
-41 74 -75 0
-48 -73 74 0
48 -73 -74 0
48 73 74 0
-48 73 -74 0
-38 71 76 0
38 -76 0
-71 -76 0
-72 -73 76 0
-72 73 -76 0
72 73 76 0
72 -73 -76 0
38 -57 0
-38 72 0
-41 -75 81 0
41 -81 0
75 -81 0
-48 -80 81 0
48 -80 -81 0
48 80 81 0
-48 80 -81 0
-48 74 82 0
48 -82 0
-74 -82 0
-79 -80 82 0
-79 80 -82 0
79 80 82 0
79 -80 -82 0
-57 -78 79 0
57 -78 -79 0
57 78 79 0
-57 78 -79 0
-73 -76 83 0
73 -83 0
76 -83 0
-77 -78 83 0
-77 78 -83 0
77 78 83 0
77 -78 -83 0
38 -70 0
-38 -77 0
-48 -81 89 0
48 -89 0
81 -89 0
-81 -82 91 0
81 -91 0
82 -91 0
-48 -82 92 0
48 -92 0
82 -92 0
90 91 92 0
-90 -91 0
-90 -92 0
88 89 -90 0
-88 -89 0
-88 90 0
-57 -87 88 0
57 -87 -88 0
57 87 88 0
-57 87 -88 0
-57 -79 93 0
57 -93 0
79 -93 0
-86 -87 93 0
-86 87 -93 0
86 87 93 0
86 -87 -93 0
-70 -85 86 0
70 -85 -86 0
70 85 86 0
-70 85 -86 0
78 -83 94 0
-78 -94 0
83 -94 0
-84 -85 94 0
-84 85 -94 0
84 85 94 0
84 -85 -94 0
-38 84 0
