proyecto3/PracticalSAT/SAT2005_example.log
elim(2, { -1 2 }{ 2 3 }{ 1 -2 }{ -2 -3 }, { -1 -3 }{ 1 3 })
subsume'({ 1 3 }, { 1 3 -6 })
elim(4, { 1 4 }{ 4 -5 }{ -1 -4 }{ -4 5 }, { 1 5 }{ -1 -5 })
elim(28, { 28 29 }{ 27 28 }{ -28 -29 }{ -27 -28 }, { -27 29 }{ 27 -29 })
elim(29, { 29 30 }{ -27 29 }{ -29 -30 }{ 27 -29 }, { 27 30 }{ -27 -30 })
elim(9, { 1 9 }{ -1 9 -10 }{ 9 15 }{ -1 -9 10 }{ -9 -15 }, { 1 -15 }{ -1 -10 -15 }{ -1 10 15 })
elim(16, { -1 16 -17 }{ 16 -24 }{ 1 -16 }{ -1 -16 17 }{ -16 24 }, { -1 -17 24 }{ 1 -24 }{ -1 17 -24 })
elim(25, { -1 25 26 }{ 25 -36 }{ 1 -25 }{ -25 -26 }{ -25 36 }, { -1 26 36 }{ 1 -36 }{ -26 -36 })
elim(30, { 30 31 -32 }{ 27 30 }{ -30 -31 }{ -30 32 }{ -27 -30 }, { -27 31 -32 }{ 27 -31 }{ 27 32 })
elim(31, { -3 -21 31 }{ -27 31 -32 }{ 3 -31 }{ 21 -31 }{ 27 -31 }, { -3 -21 27 }{ 3 -27 -32 }{ 21 -27 -32 })
elim(32, { 32 33 34 }{ 27 32 }{ -32 -33 }{ -32 -34 }{ 3 -27 -32 }{ 21 -27 -32 }, { 3 -27 33 34 }{ 21 -27 33 34 }{ 27 -33 }{ 27 -34 })
elim(33, { -21 -22 33 }{ 3 -27 33 34 }{ 21 -27 33 34 }{ 21 -33 }{ 22 -33 }{ 27 -33 }, { -21 -22 27 }{ 3 21 -27 34 }{ 3 22 -27 34 }{ 21 -27 34 }{ 21 22 -27 34 })
subsume'({ 21 -27 34 }, { 3 21 -27 34 })
elim(34, { -3 -22 34 }{ 3 22 -27 34 }{ 21 -27 34 }{ 21 22 -27 34 }{ 3 -34 }{ 22 -34 }{ 27 -34 }, { -3 -22 27 }{ 3 22 -27 }{ 3 22 -27 }{ 3 21 -27 }{ 21 22 -27 }{ 3 21 22 -27 }{ 21 22 -27 })
subsume'({ 3 22 -27 }, { 3 22 -27 })
subsume'({ 21 22 -27 }, { 21 22 -27 })
subsume'({ 21 22 -27 }, { 3 21 22 -27 })
elim(37, { 5 -8 37 }{ 37 -38 }{ -5 -37 }{ 8 -37 }{ -37 38 }, { 5 -8 38 }{ -5 -38 }{ 8 -38 })
elim(58, { -5 58 59 }{ 58 -70 }{ 5 -58 }{ -58 -59 }{ -58 70 }, { -5 59 70 }{ 5 -70 }{ -59 -70 })
elim(64, { -15 -54 64 }{ 63 64 -65 }{ 15 -64 }{ 54 -64 }{ -63 -64 }, { -15 -54 -63 }{ 15 63 -65 }{ 54 63 -65 })
elim(65, { 65 66 67 }{ -63 65 }{ -65 -66 }{ -65 -67 }{ 15 63 -65 }{ 54 63 -65 }, { 15 63 66 67 }{ 54 63 66 67 }{ -63 -66 }{ -63 -67 })
elim(66, { -54 -55 66 }{ 15 63 66 67 }{ 54 63 66 67 }{ 54 -66 }{ 55 -66 }{ -63 -66 }, { -54 -55 -63 }{ 15 54 63 67 }{ 15 55 63 67 }{ 54 63 67 }{ 54 55 63 67 })
subsume'({ 54 63 67 }, { 15 54 63 67 })
elim(67, { -15 -55 67 }{ 15 55 63 67 }{ 54 63 67 }{ 54 55 63 67 }{ 15 -67 }{ 55 -67 }{ -63 -67 }, { -15 -55 -63 }{ 15 55 63 }{ 15 55 63 }{ 15 54 63 }{ 54 55 63 }{ 15 54 55 63 }{ 54 55 63 })
subsume'({ 15 55 63 }, { 15 55 63 })
subsume'({ 54 55 63 }, { 54 55 63 })
subsume'({ 54 55 63 }, { 15 54 55 63 })
elim(72, { 72 73 76 }{ 72 -73 -76 }{ -38 72 }{ -72 -73 76 }{ -72 73 -76 }, { -38 -73 76 }{ -38 73 -76 })
elim(77, { 77 78 83 }{ 77 -78 -83 }{ -77 -78 83 }{ -77 78 -83 }{ -38 -77 }, { -38 78 83 }{ -38 -78 -83 })
elim(84, { 84 85 94 }{ 84 -85 -94 }{ -38 84 }{ -84 -85 94 }{ -84 85 -94 }, { -38 -85 94 }{ -38 85 -94 })
elim(89, { -48 -81 89 }{ 88 89 -90 }{ 48 -89 }{ 81 -89 }{ -88 -89 }, { -48 -81 -88 }{ 48 88 -90 }{ 81 88 -90 })
elim(90, { 90 91 92 }{ -88 90 }{ -90 -91 }{ -90 -92 }{ 48 88 -90 }{ 81 88 -90 }, { 48 88 91 92 }{ 81 88 91 92 }{ -88 -91 }{ -88 -92 })
elim(91, { -81 -82 91 }{ 48 88 91 92 }{ 81 88 91 92 }{ 81 -91 }{ 82 -91 }{ -88 -91 }, { -81 -82 -88 }{ 48 81 88 92 }{ 48 82 88 92 }{ 81 88 92 }{ 81 82 88 92 })
subsume'({ 81 88 92 }, { 48 81 88 92 })
elim(92, { -48 -82 92 }{ 48 82 88 92 }{ 81 88 92 }{ 81 82 88 92 }{ 48 -92 }{ 82 -92 }{ -88 -92 }, { -48 -82 -88 }{ 48 82 88 }{ 48 82 88 }{ 48 81 88 }{ 81 82 88 }{ 48 81 82 88 }{ 81 82 88 })
subsume'({ 48 82 88 }, { 48 82 88 })
subsume'({ 81 82 88 }, { 81 82 88 })
subsume'({ 81 82 88 }, { 48 81 82 88 })
elim(6, { 1 -3 6 }{ -1 6 -7 }{ 6 -8 }{ -1 -6 7 }{ -6 8 }, { 1 -3 8 }{ -1 -7 8 }{ -1 7 -8 })
elim(7, { -1 7 }{ -1 7 14 }{ -1 7 -8 }{ 1 -7 }{ -7 -14 }{ -1 -7 8 }, { -1 -14 }{ -1 8 }{ -1 8 14 }{ -1 -8 -14 })
elim(10, { 10 11 14 }{ 10 -11 -14 }{ -1 10 15 }{ -10 -11 14 }{ -10 11 -14 }{ -1 -10 -15 }, { -1 11 14 -15 }{ -1 -11 -14 -15 }{ -1 -11 14 15 }{ -1 11 -14 15 })
elim(13, { -1 13 }{ -12 13 }{ 13 -21 }{ 1 -13 }{ 12 -13 }{ -13 21 }, { -1 12 }{ -1 21 }{ 1 -12 }{ -12 21 }{ 1 -21 }{ 12 -21 })
elim(17, { 17 18 23 }{ 17 -18 -23 }{ -1 17 -24 }{ -17 -18 23 }{ -17 18 -23 }{ -1 -17 24 }, { -1 18 23 24 }{ -1 -18 -23 24 }{ -1 -18 23 -24 }{ -1 18 -23 -24 })
elim(19, { 19 20 22 }{ 19 -20 -22 }{ 18 19 }{ -19 -20 22 }{ -19 20 -22 }{ -18 -19 }, { -18 20 22 }{ -18 -20 -22 }{ 18 -20 22 }{ 18 20 -22 })
elim(26, { 26 27 35 }{ 26 -27 -35 }{ -1 26 36 }{ -26 -27 35 }{ -26 27 -35 }{ -26 -36 }, { 27 35 -36 }{ -27 -35 -36 }{ -1 -27 35 36 }{ -1 27 -35 36 })
elim(39, { 5 -15 39 }{ -5 39 -40 }{ 39 -41 }{ 5 15 -39 }{ -5 -39 40 }{ -39 41 }, { 5 -15 41 }{ -5 -40 41 }{ 5 15 -41 }{ -5 40 -41 })
elim(42, { 5 24 42 }{ -5 42 -43 }{ 42 48 }{ 5 -24 -42 }{ -5 -42 43 }{ -42 -48 }, { 5 24 -48 }{ -5 -43 -48 }{ 5 -24 48 }{ -5 43 48 })
elim(43, { 43 44 47 }{ 43 -44 -47 }{ -5 43 48 }{ -43 -44 47 }{ -43 44 -47 }{ -5 -43 -48 }, { -5 44 47 -48 }{ -5 -44 -47 -48 }{ -5 -44 47 48 }{ -5 44 -47 48 })
elim(49, { 5 -36 49 }{ -5 49 -50 }{ 49 -57 }{ 5 36 -49 }{ -5 -49 50 }{ -49 57 }, { 5 -36 57 }{ -5 -50 57 }{ 5 36 -57 }{ -5 50 -57 })
elim(50, { 50 51 56 }{ 50 -51 -56 }{ -5 50 -57 }{ -50 -51 56 }{ -50 51 -56 }{ -5 -50 57 }, { -5 51 56 57 }{ -5 -51 -56 57 }{ -5 -51 56 -57 }{ -5 51 -56 -57 })
elim(59, { 59 60 69 }{ 59 -60 -69 }{ -5 59 70 }{ -59 -60 69 }{ -59 60 -69 }{ -59 -70 }, { 60 69 -70 }{ -60 -69 -70 }{ -5 -60 69 70 }{ -5 60 -69 70 })
elim(35, { 18 -23 35 }{ 27 35 -36 }{ -1 -27 35 36 }{ -18 -35 }{ 23 -35 }{ -27 -35 -36 }{ -1 27 -35 36 }, { 18 -23 -27 -36 }{ -1 18 -23 27 36 }{ -18 27 -36 }{ 23 27 -36 }{ -1 -18 -27 36 }{ -1 23 -27 36 })
elim(68, { -24 -52 68 }{ -61 -62 68 }{ 61 62 68 }{ 24 -68 }{ 52 -68 }{ -61 62 -68 }{ 61 -62 -68 }, { -24 -52 -61 62 }{ -24 -52 61 -62 }{ 24 -61 -62 }{ 52 -61 -62 }{ 24 61 62 }{ 52 61 62 })
elim(69, { 51 -56 69 }{ 60 69 -70 }{ -5 -60 69 70 }{ -51 -69 }{ 56 -69 }{ -60 -69 -70 }{ -5 60 -69 70 }, { 51 -56 -60 -70 }{ -5 51 -56 60 70 }{ -51 60 -70 }{ 56 60 -70 }{ -5 -51 -60 70 }{ -5 56 -60 70 })
elim(71, { 38 41 71 }{ -38 -41 71 }{ -38 71 }{ -38 71 76 }{ -38 41 -71 }{ 38 -41 -71 }{ -71 -76 }, { 38 41 -76 }{ -38 -41 -76 }{ -38 41 }{ -38 -76 }{ -38 41 76 })
subsume'({ -38 -76 }, { -38 73 -76 })
subsume'({ -38 -76 }, { -38 -41 -76 })
elim(93, { -57 -79 93 }{ -86 -87 93 }{ 86 87 93 }{ 57 -93 }{ 79 -93 }{ -86 87 -93 }{ 86 -87 -93 }, { -57 -79 -86 87 }{ -57 -79 86 -87 }{ 57 -86 -87 }{ 79 -86 -87 }{ 57 86 87 }{ 79 86 87 })
elim(94, { 78 -83 94 }{ -38 -85 94 }{ -78 -94 }{ 83 -94 }{ -38 85 -94 }, { -38 78 -83 85 }{ -38 -78 -85 }{ -38 83 -85 })
elim(20, { 3 20 21 }{ -3 20 -21 }{ -18 20 22 }{ 18 20 -22 }{ -3 -20 21 }{ 3 -20 -21 }{ -18 -20 -22 }{ 18 -20 22 }, { 3 -18 21 -22 }{ 3 18 21 22 }{ -3 -18 -21 -22 }{ -3 18 -21 22 }{ -3 -18 21 22 }{ 3 -18 -21 22 }{ -3 18 21 -22 }{ 3 18 -21 -22 })
elim(40, { 5 8 40 }{ -5 -8 40 }{ -5 40 47 }{ -5 40 -41 }{ -5 8 -40 }{ 5 -8 -40 }{ -40 -47 }{ -5 -40 41 }, { 5 8 -47 }{ -5 -8 -47 }{ -5 -8 41 }{ -5 8 47 }{ -5 41 47 }{ -5 8 -41 }{ -5 -41 -47 })
elim(53, { 15 53 54 }{ -15 53 -54 }{ -52 53 -55 }{ 52 53 55 }{ -15 -53 54 }{ 15 -53 -54 }{ -52 -53 55 }{ 52 -53 -55 }, { 15 -52 54 55 }{ 15 52 54 -55 }{ -15 -52 -54 55 }{ -15 52 -54 -55 }{ -15 -52 54 -55 }{ 15 -52 -54 -55 }{ -15 52 54 55 }{ 15 52 -54 55 })
elim(62, { 24 62 63 }{ -24 62 -63 }{ -24 -52 -61 62 }{ 24 61 62 }{ 52 61 62 }{ -24 -62 63 }{ 24 -62 -63 }{ -24 -52 61 -62 }{ 24 -61 -62 }{ 52 -61 -62 }, { 24 -61 63 }{ 24 52 -61 63 }{ -24 -52 61 -63 }{ -24 52 -61 -63 }{ -24 -52 -61 63 }{ 24 61 -63 }{ -24 52 61 63 }{ 24 52 61 -63 })
elim(80, { 48 80 81 }{ -48 80 -81 }{ -79 80 -82 }{ 79 80 82 }{ -48 -80 81 }{ 48 -80 -81 }{ -79 -80 82 }{ 79 -80 -82 }, { 48 -79 81 82 }{ 48 79 81 -82 }{ -48 -79 -81 82 }{ -48 79 -81 -82 }{ -48 -79 81 -82 }{ 48 -79 -81 -82 }{ -48 79 81 82 }{ 48 79 -81 82 })
elim(85, { 70 85 86 }{ -70 85 -86 }{ -38 78 -83 85 }{ -70 -85 86 }{ 70 -85 -86 }{ -38 -78 -85 }{ -38 83 -85 }, { -38 70 -78 86 }{ -38 70 83 86 }{ -38 -70 -78 -86 }{ -38 -70 83 -86 }{ -38 -70 78 -83 86 }{ -38 70 78 -83 -86 })
elim(87, { 57 87 88 }{ -57 87 -88 }{ -57 -79 -86 87 }{ 57 86 87 }{ 79 86 87 }{ -57 -87 88 }{ 57 -87 -88 }{ -57 -79 86 -87 }{ 57 -86 -87 }{ 79 -86 -87 }, { 57 -86 88 }{ 57 79 -86 88 }{ -57 -79 86 -88 }{ -57 79 -86 -88 }{ -57 -79 -86 88 }{ 57 86 -88 }{ -57 79 86 88 }{ 57 79 86 -88 })
elim(76, { 76 -83 }{ -38 -73 76 }{ -38 41 76 }{ 38 -76 }{ -73 -76 83 }{ 38 41 -76 }{ -38 -76 }, { 38 -83 }{ 38 41 -83 }{ -38 -83 }{ -38 -73 83 }{ -38 -73 }{ -38 41 -73 83 }{ -38 41 })
subsume'({ -38 -83 }, { -38 -78 -83 })
subsume'({ -38 -83 }, { -38 -70 78 -83 86 })
subsume'({ -38 -83 }, { -38 70 78 -83 -86 })
subsume'({ -38 -73 }, { -38 -73 83 })
subsume'({ -38 41 }, { -38 41 })
subsume'({ -38 41 }, { -38 41 -73 83 })
elim(83, { -38 78 83 }{ -38 70 83 86 }{ -38 -70 83 -86 }{ 73 -83 }{ 38 -83 }{ 38 41 -83 }{ -38 -83 }, { -38 73 78 }{ -38 78 }{ -38 70 73 86 }{ -38 70 86 }{ -38 -70 73 -86 }{ -38 -70 -86 })
subsume'({ -38 78 }, { -38 73 78 })
subsume'({ -38 70 86 }, { -38 70 -78 86 })
subsume'({ -38 70 86 }, { -38 70 73 86 })
subsume'({ -38 -70 -86 }, { -38 -70 -78 -86 })
subsume'({ -38 -70 -86 }, { -38 -70 73 -86 })
elim(73, { 48 73 74 }{ -48 73 -74 }{ -48 -73 74 }{ 48 -73 -74 }{ -38 -73 }, { -38 48 74 }{ -38 -48 -74 })
elim(78, { 57 78 79 }{ -57 78 -79 }{ -38 78 }{ -57 -78 79 }{ 57 -78 -79 }, { -38 -57 79 }{ -38 57 -79 })
elim(70, { -5 51 -56 60 70 }{ -5 -51 -60 70 }{ -5 56 -60 70 }{ -38 70 86 }{ 38 -70 }{ 5 -70 }{ 51 -56 -60 -70 }{ -51 60 -70 }{ 56 60 -70 }{ -38 -70 -86 }, { -5 38 51 -56 60 }{ -5 -38 51 -56 60 -86 }{ -5 38 -51 -60 }{ -5 -38 -51 -60 -86 }{ -5 38 56 -60 }{ -5 -38 56 -60 -86 }{ 5 -38 86 }{ -38 51 -56 -60 86 }{ -38 -51 60 86 }{ -38 56 60 86 })
selfSubsume(-1, { 1 -15 }, { -1 11 14 -15 })
selfSubsume(-1, { 1 -15 }, { -1 -11 -14 -15 })
selfSubsume(1, { -1 8 }, { 1 -3 8 })
selfSubsume(-8, { -1 8 }, { -1 -8 -14 })
subsume({ -1 -14 }, { -1 -14 })
subsume({ -1 -14 }, { -1 11 -14 15 })
selfSubsume(-1, { 1 -14 }, { -1 -14 })
selfSubsume(-1, { 1 -24 }, { -1 -18 23 -24 })
selfSubsume(-1, { 1 -24 }, { -1 18 -23 -24 })
selfSubsume(-3, { 3 -22 }, { -3 -22 27 })
subsume({ -22 27 }, { -21 -22 27 })
selfSubsume(-3, { 3 -22 }, { -3 -18 -21 -22 })
selfSubsume(-3, { 3 -22 }, { -3 18 21 -22 })
selfSubsume(22, { 3 -22 }, { 3 22 -27 })
subsume({ 3 -27 }, { 3 21 -27 })
selfSubsume(22, { 3 -22 }, { 3 18 21 22 })
selfSubsume(22, { 3 -22 }, { 3 -18 -21 22 })
selfSubsume(5, { -5 -38 }, { 5 -38 86 })
subsume({ -38 86 }, { -38 51 -56 -60 86 })
subsume({ -38 86 }, { -38 -51 60 86 })
subsume({ -38 86 }, { -38 56 60 86 })
selfSubsume(38, { -5 -38 }, { -5 38 51 -56 60 })
subsume({ -5 51 -56 60 }, { -5 -38 51 -56 60 -86 })
selfSubsume(38, { -5 -38 }, { -5 38 -51 -60 })
subsume({ -5 -51 -60 }, { -5 -38 -51 -60 -86 })
selfSubsume(38, { -5 -38 }, { -5 38 56 -60 })
subsume({ -5 56 -60 }, { -5 -38 56 -60 -86 })
selfSubsume(-8, { 8 -46 }, { -8 45 -46 })
selfSubsume(-8, { 8 -46 }, { -8 -46 54 })
selfSubsume(46, { 8 -46 }, { 8 45 46 })
selfSubsume(-45, { 8 45 }, { 8 -45 -46 })
subsume({ 8 -46 }, { 8 -46 })
selfSubsume(-5, { 5 -47 }, { -5 -44 -47 -48 })
selfSubsume(-5, { 5 -47 }, { -5 44 -47 48 })
selfSubsume(-5, { 5 -47 }, { -5 -8 -47 })
selfSubsume(-5, { 5 -47 }, { -5 -41 -47 })
selfSubsume(-15, { 15 -55 }, { -15 -55 -63 })
subsume({ -55 -63 }, { -54 -55 -63 })
selfSubsume(-15, { 15 -55 }, { -15 52 -54 -55 })
selfSubsume(-15, { 15 -55 }, { -15 -52 54 -55 })
selfSubsume(55, { 15 -55 }, { 15 55 63 })
subsume({ 15 63 }, { 15 54 63 })
selfSubsume(55, { 15 -55 }, { 15 -52 54 55 })
selfSubsume(55, { 15 -55 }, { 15 52 -54 55 })
selfSubsume(-24, { 24 61 -63 }, { -24 -52 61 -63 })
selfSubsume(-24, { 24 -61 63 }, { -24 -52 -61 63 })
selfSubsume(-38, { 38 -41 }, { -38 -41 75 })
subsume({ -41 75 }, { -41 -74 75 })
selfSubsume(-38, { 38 48 }, { -38 48 74 })
selfSubsume(41, { -41 75 }, { 41 74 75 })
selfSubsume(-75, { -41 75 }, { -41 74 -75 })
selfSubsume(-75, { -41 75 }, { -41 -75 81 })
selfSubsume(-38, { 38 -57 }, { -38 -57 79 })
subsume({ -57 79 }, { -57 79 -86 -88 })
subsume({ -57 79 }, { -57 79 86 88 })
selfSubsume(-48, { 48 -82 }, { -48 -82 -88 })
subsume({ -82 -88 }, { -81 -82 -88 })
selfSubsume(-48, { 48 -82 }, { -48 79 -81 -82 })
selfSubsume(-48, { 48 -82 }, { -48 -79 81 -82 })
selfSubsume(82, { 48 -82 }, { 48 82 88 })
subsume({ 48 88 }, { 48 81 88 })
selfSubsume(82, { 48 -82 }, { 48 -79 81 82 })
selfSubsume(82, { 48 -82 }, { 48 79 -81 82 })
selfSubsume(57, { -57 79 }, { 57 79 -86 88 })
selfSubsume(57, { -57 79 }, { 57 79 86 -88 })
selfSubsume(-79, { -57 79 }, { -57 -79 86 -88 })
selfSubsume(-79, { -57 79 }, { -57 -79 -86 88 })
selfSubsume(18, { 3 -18 -21 }, { 3 18 -21 -22 })
selfSubsume(21, { 3 -18 -21 }, { 3 -18 21 -22 })
selfSubsume(-57, { 57 -86 88 }, { -57 -86 88 })
subsume({ -86 88 }, { 57 -86 88 })
subsume({ -86 88 }, { 79 -86 88 })
selfSubsume(57, { -57 86 -88 }, { 57 86 -88 })
subsume({ 86 -88 }, { 79 86 -88 })
subsume({ 86 -88 }, { -57 86 -88 })
bcpSubsume(-14, { 1 -14 })
bcpSubsume(-14, { -11 -14 23 })
bcpSubsume(-14, { -11 -14 -15 })
bcpStrengthen(14, { 14 -23 })
bcpStrengthen(14, { -1 8 14 })
subsume({ -1 8 }, { -1 8 })
bcpStrengthen(14, { -1 -11 14 15 })
bcpStrengthen(14, { 11 14 -15 })
bcpSubsume(-23, { 11 -23 })
bcpSubsume(-23, { -1 -18 -23 24 })
bcpSubsume(-23, { 18 -23 -27 -36 })
bcpSubsume(-23, { -1 18 -23 27 36 })
bcpSubsume(-23, { 18 -23 -24 })
bcpStrengthen(23, { -1 18 23 24 })
bcpStrengthen(23, { 23 27 -36 })
subsume({ 27 -36 }, { -18 27 -36 })
bcpStrengthen(23, { -1 23 -27 36 })
subsume({ -1 -27 36 }, { -1 -18 -27 36 })
bcpStrengthen(23, { -18 23 -24 })
selfSubsume(8, { -8 -47 }, { 5 8 -47 })
subsume({ 5 -47 }, { 5 -47 })
selfSubsume(-52, { 52 -54 -55 }, { 15 -52 -54 -55 })
selfSubsume(54, { 52 -54 -55 }, { 15 52 54 -55 })
selfSubsume(52, { -52 61 -63 }, { 24 52 61 -63 })
subsume({ 24 61 -63 }, { 24 61 -63 })
selfSubsume(52, { -52 -61 63 }, { 24 52 -61 63 })
subsume({ 24 -61 63 }, { 24 -61 63 })
selfSubsume(-48, { 48 74 }, { -48 74 82 })
selfSubsume(-79, { 79 -81 -82 }, { 48 -79 -81 -82 })
selfSubsume(81, { 79 -81 -82 }, { 48 79 81 -82 })
subsume({ 3 -22 }, { 3 -21 -22 })
subsume({ 3 -22 }, { 3 -18 -22 })
subsume({ 15 -55 }, { 15 -54 -55 })
subsume({ 15 -55 }, { 15 52 -55 })
subsume({ 41 -75 }, { 41 -74 -75 })
subsume({ 48 -82 }, { 48 -81 -82 })
subsume({ 48 -82 }, { 48 79 -82 })
elim(86, { -38 86 }{ 86 -88 }{ -86 88 }, { -38 88 })
elim(75, { 75 -81 }{ -41 75 }{ 74 75 }{ 38 -75 }{ 41 -75 }, { 38 -81 }{ 41 -81 }{ 38 -41 }{ 38 74 }{ 41 74 })
subsume'({ 41 -81 }, { 41 -81 })
subsume'({ 38 -41 }, { 38 -41 })
elim(74, { 48 74 }{ -41 74 }{ 74 82 }{ 38 74 }{ 41 74 }{ -74 -82 }{ -38 -48 -74 }, { 48 -82 }{ -41 -82 }{ -38 -41 -48 }{ -38 -48 82 }{ 38 -82 }{ 41 -82 }{ -38 41 -48 })
subsume'({ 48 -82 }, { 48 -82 })
elim(11, { 3 11 12 }{ -3 11 -12 }{ 11 -15 }{ -3 -11 12 }{ 3 -11 -12 }{ -1 -11 15 }, { -1 3 12 15 }{ -1 -3 -12 15 }{ -3 12 -15 }{ 3 -12 -15 })
elim(27, { -3 -21 27 }{ -22 27 }{ 27 -36 }{ 21 22 -27 }{ 3 -27 }{ -1 -27 36 }, { -1 -3 -21 36 }{ 3 -22 }{ -1 -22 36 }{ 21 22 -36 }{ 3 -36 })
subsume'({ 3 -22 }, { 3 -22 })
elim(88, { 81 82 88 }{ 48 88 }{ -38 88 }{ -48 -81 -88 }{ -82 -88 }, { 48 -82 }{ -38 -48 -81 }{ -38 -82 })
subsume'({ 48 -82 }, { 48 -82 })
elim(46, { -5 -8 46 }{ -8 -45 46 }{ 46 -54 }{ 5 -46 }{ 45 -46 }{ -46 54 }{ 8 -46 }, { -5 -8 45 }{ -5 -8 54 }{ 5 -8 -45 }{ -8 -45 54 }{ 5 -54 }{ 45 -54 }{ 8 -54 })
subsume'({ 8 -54 }, { 8 -54 })
elim(60, { 36 60 61 }{ -36 60 -61 }{ -5 51 -56 60 }{ -36 -60 61 }{ 36 -60 -61 }{ -5 -51 -60 }{ -5 56 -60 }, { -5 36 -51 61 }{ -5 36 56 61 }{ -5 -36 -51 -61 }{ -5 -36 56 -61 }{ -5 -36 51 -56 61 }{ -5 36 51 -56 -61 })
elim(18, { -3 18 -21 22 }{ 18 21 -22 }{ 3 18 21 }{ -1 18 24 }{ -3 -18 21 22 }{ -18 -21 -22 }{ 3 -18 -21 }{ -18 -24 }, { -3 -21 22 -24 }{ 21 -22 -24 }{ 3 21 -24 }{ -1 -3 21 22 24 }{ -1 -21 -22 24 }{ -1 3 -21 24 })
elim(79, { -48 79 81 82 }{ -57 79 }{ 79 -81 -82 }{ 48 79 -81 }{ -48 -79 -81 82 }{ -38 57 -79 }{ -79 81 -82 }{ 48 -79 81 }, { -38 -48 57 81 82 }{ -48 -57 -81 82 }{ -57 81 -82 }{ 48 -57 81 }{ -38 57 -81 -82 }{ -38 48 57 -81 })
selfSubsume(48, { -38 -48 -81 }, { -38 48 57 -81 })
subsume({ -38 57 -81 }, { -38 57 -81 -82 })
selfSubsume(81, { -38 -48 -81 }, { -38 -48 57 81 82 })
selfSubsume(-38, { 38 -81 }, { -38 -48 -81 })
subsume({ -48 -81 }, { -48 -57 -81 82 })
selfSubsume(-38, { 38 -81 }, { -38 57 -81 })
selfSubsume(-38, { 38 -41 }, { -38 -41 -48 })
selfSubsume(41, { -41 -82 }, { 41 -82 })
selfSubsume(38, { -38 -82 }, { 38 -82 })
selfSubsume(82, { -38 -82 }, { -38 -48 82 })
subsume({ -38 -48 }, { -38 41 -48 })
subsume({ -38 -48 }, { -38 -48 57 82 })
selfSubsume(-1, { 1 3 }, { -1 3 12 15 })
selfSubsume(-1, { 1 3 }, { -1 3 -21 24 })
selfSubsume(-12, { -1 12 }, { -1 -3 -12 15 })
selfSubsume(-21, { -1 21 }, { -1 -3 -21 36 })
selfSubsume(-21, { -1 21 }, { -1 -21 -22 24 })
selfSubsume(-8, { 8 45 }, { -5 -8 45 })
bcpSubsume(-82, { -41 -82 })
bcpSubsume(-82, { 48 -82 })
bcpSubsume(-82, { -38 -82 })
bcpSubsume(-82, { -57 81 -82 })
selfSubsume(22, { -1 -22 24 }, { -1 -3 21 22 24 })
subsume({ -1 -3 }, { -1 -3 15 })
subsume({ -1 -3 }, { -1 -3 36 })
subsume({ -1 -3 }, { -1 -3 21 24 })
elim(81, { -41 81 }{ 48 -57 81 }{ 38 -81 }{ 41 -81 }{ -48 -81 }{ 57 -81 }, { 38 -41 }{ -41 -48 }{ -41 57 }{ 38 48 -57 }{ 41 48 -57 })
subsume'({ 38 -41 }, { 38 -41 })
subsume'({ -41 -48 }, { -41 -48 })
subsume({ 38 48 }, { 38 48 -57 })
